p cnf 346 1022
-1 2 0
-3 2 0
-4 2 0
-5 2 0
-6 2 0
-7 2 0
-8 2 0
-9 2 0
-10 2 0
-11 2 0
-12 2 0
-13 2 0
-14 2 0
-15 2 0
-16 2 0
-17 2 0
-18 2 0
-19 2 0
-20 2 0
-21 2 0
-22 2 0
-23 2 0
-24 2 0
-25 2 0
-26 2 0
-27 2 0
-28 2 0
-29 2 0
-30 2 0
-31 2 0
-32 2 0
-33 2 0
1 3 4 5 6 7 8 9 10 11 12 13 14 15 16 17 18 19 20 21 22 23 24 25 26 27 28 29 30 31 32 33 -2 0
-3 34 0
-1 34 0
3 1 -34 0
-4 35 0
-34 35 0
4 34 -35 0
-5 36 0
-35 36 0
5 35 -36 0
-6 37 0
-36 37 0
6 36 -37 0
-7 38 0
-37 38 0
7 37 -38 0
-8 39 0
-38 39 0
8 38 -39 0
-9 40 0
-39 40 0
9 39 -40 0
-10 41 0
-40 41 0
10 40 -41 0
-11 42 0
-41 42 0
11 41 -42 0
-12 43 0
-42 43 0
12 42 -43 0
-13 44 0
-43 44 0
13 43 -44 0
-14 45 0
-44 45 0
14 44 -45 0
-15 46 0
-45 46 0
15 45 -46 0
-16 47 0
-46 47 0
16 46 -47 0
-17 48 0
-47 48 0
17 47 -48 0
-18 49 0
-48 49 0
18 48 -49 0
-19 50 0
-49 50 0
19 49 -50 0
-20 51 0
-50 51 0
20 50 -51 0
-21 52 0
-51 52 0
21 51 -52 0
-22 53 0
-52 53 0
22 52 -53 0
-23 54 0
-53 54 0
23 53 -54 0
-24 55 0
-54 55 0
24 54 -55 0
-25 56 0
-55 56 0
25 55 -56 0
-26 57 0
-56 57 0
26 56 -57 0
-27 58 0
-57 58 0
27 57 -58 0
-28 59 0
-58 59 0
28 58 -59 0
-29 60 0
-59 60 0
29 59 -60 0
-30 61 0
-60 61 0
30 60 -61 0
-31 62 0
-61 62 0
31 61 -62 0
-32 63 0
-62 63 0
32 62 -63 0
33 64 0
-63 64 0
-33 63 -64 0
-32 65 0
-62 65 0
32 62 -65 0
-33 -2 0
65 -2 0
64 -2 0
1 66 0
3 66 0
-4 66 0
-5 66 0
-6 66 0
7 66 0
8 66 0
-9 66 0
-10 66 0
-11 66 0
-12 66 0
-13 66 0
-14 66 0
-15 66 0
-16 66 0
-17 66 0
-18 66 0
-19 66 0
-20 66 0
-21 66 0
-22 66 0
-23 66 0
-24 66 0
-25 66 0
-26 66 0
-27 66 0
-28 66 0
-29 66 0
-30 66 0
-31 66 0
-32 66 0
-33 66 0
-1 -3 4 5 6 -7 -8 9 10 11 12 13 14 15 16 17 18 19 20 21 22 23 24 25 26 27 28 29 30 31 32 33 -66 0
3 67 0
1 67 0
-3 -1 -67 0
3 68 0
1 68 0
-3 -1 -68 0
-4 69 0
68 69 0
-4 68 69 0
4 -68 -69 0
-4 70 0
68 70 0
-4 68 70 0
4 -68 -70 0
-5 71 0
-70 71 0
-5 -70 71 0
5 70 -71 0
6 72 0
71 72 0
-6 -71 -72 0
-5 73 0
-70 73 0
-5 -70 73 0
5 70 -73 0
7 74 0
6 73 -72 74 0
-7 -6 -74 0
-7 -73 -74 0
-7 72 -74 0
8 75 0
-74 75 0
-8 74 -75 0
8 76 0
-74 76 0
-8 74 -76 0
-9 77 0
76 77 0
-9 76 77 0
9 -76 -77 0
-9 78 0
76 78 0
-9 76 78 0
9 -76 -78 0
-10 79 0
-78 79 0
-10 -78 79 0
10 78 -79 0
-10 80 0
-78 80 0
-10 -78 80 0
10 78 -80 0
-11 81 0
-80 81 0
-11 -80 81 0
11 80 -81 0
-11 82 0
-80 82 0
-11 -80 82 0
11 80 -82 0
-12 83 0
-82 83 0
-12 -82 83 0
12 82 -83 0
-12 84 0
-82 84 0
-12 -82 84 0
12 82 -84 0
-13 85 0
-84 85 0
-13 -84 85 0
13 84 -85 0
-13 86 0
-84 86 0
-13 -84 86 0
13 84 -86 0
-14 87 0
-86 87 0
-14 -86 87 0
14 86 -87 0
-14 88 0
-86 88 0
-14 -86 88 0
14 86 -88 0
-15 89 0
-88 89 0
-15 -88 89 0
15 88 -89 0
-15 90 0
-88 90 0
-15 -88 90 0
15 88 -90 0
-16 91 0
-90 91 0
-16 -90 91 0
16 90 -91 0
-16 92 0
-90 92 0
-16 -90 92 0
16 90 -92 0
-17 93 0
-92 93 0
-17 -92 93 0
17 92 -93 0
-17 94 0
-92 94 0
-17 -92 94 0
17 92 -94 0
-18 95 0
-94 95 0
-18 -94 95 0
18 94 -95 0
-18 96 0
-94 96 0
-18 -94 96 0
18 94 -96 0
-19 97 0
-96 97 0
-19 -96 97 0
19 96 -97 0
-19 98 0
-96 98 0
-19 -96 98 0
19 96 -98 0
-20 99 0
-98 99 0
-20 -98 99 0
20 98 -99 0
-20 100 0
-98 100 0
-20 -98 100 0
20 98 -100 0
-21 101 0
-100 101 0
-21 -100 101 0
21 100 -101 0
-21 102 0
-100 102 0
-21 -100 102 0
21 100 -102 0
-22 103 0
-102 103 0
-22 -102 103 0
22 102 -103 0
-22 104 0
-102 104 0
-22 -102 104 0
22 102 -104 0
-23 105 0
-104 105 0
-23 -104 105 0
23 104 -105 0
-23 106 0
-104 106 0
-23 -104 106 0
23 104 -106 0
-24 107 0
-106 107 0
-24 -106 107 0
24 106 -107 0
-24 108 0
-106 108 0
-24 -106 108 0
24 106 -108 0
-25 109 0
-108 109 0
-25 -108 109 0
25 108 -109 0
-25 110 0
-108 110 0
-25 -108 110 0
25 108 -110 0
-26 111 0
-110 111 0
-26 -110 111 0
26 110 -111 0
-26 112 0
-110 112 0
-26 -110 112 0
26 110 -112 0
-27 113 0
-112 113 0
-27 -112 113 0
27 112 -113 0
-27 114 0
-112 114 0
-27 -112 114 0
27 112 -114 0
-28 115 0
-114 115 0
-28 -114 115 0
28 114 -115 0
-28 116 0
-114 116 0
-28 -114 116 0
28 114 -116 0
-29 117 0
-116 117 0
-29 -116 117 0
29 116 -117 0
-29 118 0
-116 118 0
-29 -116 118 0
29 116 -118 0
-30 119 0
-118 119 0
-30 -118 119 0
30 118 -119 0
-30 120 0
-118 120 0
-30 -118 120 0
30 118 -120 0
-31 121 0
-120 121 0
-31 -120 121 0
31 120 -121 0
32 122 0
121 122 0
-32 -121 -122 0
-31 123 0
-120 123 0
-31 -120 123 0
31 120 -123 0
-33 124 0
32 123 -122 124 0
33 -32 -124 0
33 -123 -124 0
33 122 -124 0
124 -66 0
-125 -126 -1 0
-125 126 1 0
125 126 -1 0
125 -126 1 0
-125 0
127 128 0
126 128 0
-127 -126 -128 0
129 130 0
127 126 -128 130 0
-129 -127 -130 0
-129 -126 -130 0
-129 128 -130 0
129 131 0
127 126 -128 131 0
-129 -127 -131 0
-129 -126 -131 0
-129 128 -131 0
-132 133 0
131 133 0
-132 131 133 0
132 -131 -133 0
-132 134 0
131 134 0
-132 131 134 0
132 -131 -134 0
-135 136 0
-134 136 0
-135 -134 136 0
135 134 -136 0
-135 137 0
-134 137 0
-135 -134 137 0
135 134 -137 0
-138 139 0
-137 139 0
-138 -137 139 0
138 137 -139 0
-138 140 0
-137 140 0
-138 -137 140 0
138 137 -140 0
-141 142 0
-140 142 0
-141 -140 142 0
141 140 -142 0
-141 143 0
-140 143 0
-141 -140 143 0
141 140 -143 0
-144 145 0
-143 145 0
-144 -143 145 0
144 143 -145 0
-144 146 0
-143 146 0
-144 -143 146 0
144 143 -146 0
-147 148 0
-146 148 0
-147 -146 148 0
147 146 -148 0
-147 149 0
-146 149 0
-147 -146 149 0
147 146 -149 0
-150 151 0
-149 151 0
-150 -149 151 0
150 149 -151 0
-150 152 0
-149 152 0
-150 -149 152 0
150 149 -152 0
-153 154 0
-152 154 0
-153 -152 154 0
153 152 -154 0
-153 155 0
-152 155 0
-153 -152 155 0
153 152 -155 0
-156 157 0
-155 157 0
-156 -155 157 0
156 155 -157 0
-156 158 0
-155 158 0
-156 -155 158 0
156 155 -158 0
-159 160 0
-158 160 0
-159 -158 160 0
159 158 -160 0
-159 161 0
-158 161 0
-159 -158 161 0
159 158 -161 0
-162 163 0
-161 163 0
-162 -161 163 0
162 161 -163 0
-162 164 0
-161 164 0
-162 -161 164 0
162 161 -164 0
-165 166 0
-164 166 0
-165 -164 166 0
165 164 -166 0
-165 167 0
-164 167 0
-165 -164 167 0
165 164 -167 0
-168 169 0
-167 169 0
-168 -167 169 0
168 167 -169 0
-168 170 0
-167 170 0
-168 -167 170 0
168 167 -170 0
-171 172 0
-170 172 0
-171 -170 172 0
171 170 -172 0
-171 173 0
-170 173 0
-171 -170 173 0
171 170 -173 0
-174 175 0
-173 175 0
-174 -173 175 0
174 173 -175 0
-174 176 0
-173 176 0
-174 -173 176 0
174 173 -176 0
-177 178 0
-176 178 0
-177 -176 178 0
177 176 -178 0
-177 179 0
-176 179 0
-177 -176 179 0
177 176 -179 0
-180 181 0
-179 181 0
-180 -179 181 0
180 179 -181 0
-180 182 0
-179 182 0
-180 -179 182 0
180 179 -182 0
-183 184 0
-182 184 0
-183 -182 184 0
183 182 -184 0
-183 185 0
-182 185 0
-183 -182 185 0
183 182 -185 0
-186 187 0
-185 187 0
-186 -185 187 0
186 185 -187 0
-186 188 0
-185 188 0
-186 -185 188 0
186 185 -188 0
-189 190 0
-188 190 0
-189 -188 190 0
189 188 -190 0
-189 191 0
-188 191 0
-189 -188 191 0
189 188 -191 0
-192 193 0
-191 193 0
-192 -191 193 0
192 191 -193 0
-192 194 0
-191 194 0
-192 -191 194 0
192 191 -194 0
-195 196 0
-194 196 0
-195 -194 196 0
195 194 -196 0
-195 197 0
-194 197 0
-195 -194 197 0
195 194 -197 0
-198 199 0
-197 199 0
-198 -197 199 0
198 197 -199 0
-198 200 0
-197 200 0
-198 -197 200 0
198 197 -200 0
-201 202 0
-200 202 0
-201 -200 202 0
201 200 -202 0
-201 203 0
-200 203 0
-201 -200 203 0
201 200 -203 0
-204 205 0
-203 205 0
-204 -203 205 0
204 203 -205 0
-204 206 0
-203 206 0
-204 -203 206 0
204 203 -206 0
-207 208 0
-206 208 0
-207 -206 208 0
207 206 -208 0
-207 209 0
-206 209 0
-207 -206 209 0
207 206 -209 0
-210 211 0
-209 211 0
-210 -209 211 0
210 209 -211 0
212 213 0
211 213 0
-212 -211 -213 0
-210 214 0
-209 214 0
-210 -209 214 0
210 209 -214 0
-215 216 0
212 214 -213 216 0
215 -212 -216 0
215 -214 -216 0
215 213 -216 0
217 -216 0
-217 216 0
-217 0
218 0
-218 219 0
-220 219 0
221 219 0
-222 219 0
-223 219 0
-224 219 0
-225 219 0
-226 219 0
-227 219 0
-228 219 0
-229 219 0
-230 219 0
-231 219 0
-232 219 0
-233 219 0
-234 219 0
-235 219 0
-236 219 0
-237 219 0
-238 219 0
-239 219 0
-240 219 0
-241 219 0
-242 219 0
-243 219 0
-244 219 0
-245 219 0
-246 219 0
-247 219 0
-248 219 0
-249 219 0
-250 219 0
218 220 -221 222 223 224 225 226 227 228 229 230 231 232 233 234 235 236 237 238 239 240 241 242 243 244 245 246 247 248 249 250 -219 0
251 219 0
-251 -219 0
-251 0
-252 -253 -218 0
-252 253 218 0
252 253 -218 0
252 -253 218 0
-252 0
-254 -127 -3 0
-254 127 3 0
254 127 -3 0
254 -127 3 0
-254 0
-255 -129 -4 0
-255 129 4 0
255 129 -4 0
255 -129 4 0
-255 0
-256 -132 -5 0
-256 132 5 0
256 132 -5 0
256 -132 5 0
-256 0
-257 -135 -6 0
-257 135 6 0
257 135 -6 0
257 -135 6 0
-257 0
-258 -138 -7 0
-258 138 7 0
258 138 -7 0
258 -138 7 0
-258 0
-259 -141 -8 0
-259 141 8 0
259 141 -8 0
259 -141 8 0
-259 0
-260 -144 -9 0
-260 144 9 0
260 144 -9 0
260 -144 9 0
-260 0
-261 -147 -10 0
-261 147 10 0
261 147 -10 0
261 -147 10 0
-261 0
-262 -150 -11 0
-262 150 11 0
262 150 -11 0
262 -150 11 0
-262 0
-263 -153 -12 0
-263 153 12 0
263 153 -12 0
263 -153 12 0
-263 0
-264 -156 -13 0
-264 156 13 0
264 156 -13 0
264 -156 13 0
-264 0
-265 -159 -14 0
-265 159 14 0
265 159 -14 0
265 -159 14 0
-265 0
-266 -162 -15 0
-266 162 15 0
266 162 -15 0
266 -162 15 0
-266 0
-267 -165 -16 0
-267 165 16 0
267 165 -16 0
267 -165 16 0
-267 0
-268 -168 -17 0
-268 168 17 0
268 168 -17 0
268 -168 17 0
-268 0
-269 -171 -18 0
-269 171 18 0
269 171 -18 0
269 -171 18 0
-269 0
-270 -174 -19 0
-270 174 19 0
270 174 -19 0
270 -174 19 0
-270 0
-271 -177 -20 0
-271 177 20 0
271 177 -20 0
271 -177 20 0
-271 0
-272 -180 -21 0
-272 180 21 0
272 180 -21 0
272 -180 21 0
-272 0
-273 -183 -22 0
-273 183 22 0
273 183 -22 0
273 -183 22 0
-273 0
-274 -186 -23 0
-274 186 23 0
274 186 -23 0
274 -186 23 0
-274 0
-275 -189 -24 0
-275 189 24 0
275 189 -24 0
275 -189 24 0
-275 0
-276 -192 -25 0
-276 192 25 0
276 192 -25 0
276 -192 25 0
-276 0
-277 -195 -26 0
-277 195 26 0
277 195 -26 0
277 -195 26 0
-277 0
-278 -198 -27 0
-278 198 27 0
278 198 -27 0
278 -198 27 0
-278 0
-279 -201 -28 0
-279 201 28 0
279 201 -28 0
279 -201 28 0
-279 0
-280 -204 -29 0
-280 204 29 0
280 204 -29 0
280 -204 29 0
-280 0
-281 -207 -30 0
-281 207 30 0
281 207 -30 0
281 -207 30 0
-281 0
-282 -210 -31 0
-282 210 31 0
282 210 -31 0
282 -210 31 0
-282 0
-283 -212 -32 0
-283 212 32 0
283 212 -32 0
283 -212 32 0
-283 0
-284 -215 -33 0
-284 215 33 0
284 215 -33 0
284 -215 33 0
-284 0
220 0
-221 0
-222 0
-223 0
-224 0
-225 0
-226 0
-227 0
-228 0
-229 0
-230 0
-231 0
-232 0
-233 0
-234 0
-235 0
-236 0
-237 0
-238 0
-239 0
-240 0
-241 0
-242 0
-243 0
-244 0
-245 0
-246 0
-247 0
-248 0
-249 0
-250 0
-285 -286 -220 0
-285 286 220 0
285 286 -220 0
285 -286 220 0
-285 0
-287 -288 -221 0
-287 288 221 0
287 288 -221 0
287 -288 221 0
-287 0
-289 -290 -222 0
-289 290 222 0
289 290 -222 0
289 -290 222 0
-289 0
-291 -292 -223 0
-291 292 223 0
291 292 -223 0
291 -292 223 0
-291 0
-293 -294 -224 0
-293 294 224 0
293 294 -224 0
293 -294 224 0
-293 0
-295 -296 -225 0
-295 296 225 0
295 296 -225 0
295 -296 225 0
-295 0
-297 -298 -226 0
-297 298 226 0
297 298 -226 0
297 -298 226 0
-297 0
-299 -300 -227 0
-299 300 227 0
299 300 -227 0
299 -300 227 0
-299 0
-301 -302 -228 0
-301 302 228 0
301 302 -228 0
301 -302 228 0
-301 0
-303 -304 -229 0
-303 304 229 0
303 304 -229 0
303 -304 229 0
-303 0
-305 -306 -230 0
-305 306 230 0
305 306 -230 0
305 -306 230 0
-305 0
-307 -308 -231 0
-307 308 231 0
307 308 -231 0
307 -308 231 0
-307 0
-309 -310 -232 0
-309 310 232 0
309 310 -232 0
309 -310 232 0
-309 0
-311 -312 -233 0
-311 312 233 0
311 312 -233 0
311 -312 233 0
-311 0
-313 -314 -234 0
-313 314 234 0
313 314 -234 0
313 -314 234 0
-313 0
-315 -316 -235 0
-315 316 235 0
315 316 -235 0
315 -316 235 0
-315 0
-317 -318 -236 0
-317 318 236 0
317 318 -236 0
317 -318 236 0
-317 0
-319 -320 -237 0
-319 320 237 0
319 320 -237 0
319 -320 237 0
-319 0
-321 -322 -238 0
-321 322 238 0
321 322 -238 0
321 -322 238 0
-321 0
-323 -324 -239 0
-323 324 239 0
323 324 -239 0
323 -324 239 0
-323 0
-325 -326 -240 0
-325 326 240 0
325 326 -240 0
325 -326 240 0
-325 0
-327 -328 -241 0
-327 328 241 0
327 328 -241 0
327 -328 241 0
-327 0
-329 -330 -242 0
-329 330 242 0
329 330 -242 0
329 -330 242 0
-329 0
-331 -332 -243 0
-331 332 243 0
331 332 -243 0
331 -332 243 0
-331 0
-333 -334 -244 0
-333 334 244 0
333 334 -244 0
333 -334 244 0
-333 0
-335 -336 -245 0
-335 336 245 0
335 336 -245 0
335 -336 245 0
-335 0
-337 -338 -246 0
-337 338 246 0
337 338 -246 0
337 -338 246 0
-337 0
-339 -340 -247 0
-339 340 247 0
339 340 -247 0
339 -340 247 0
-339 0
-341 -342 -248 0
-341 342 248 0
341 342 -248 0
341 -342 248 0
-341 0
-343 -344 -249 0
-343 344 249 0
343 344 -249 0
343 -344 249 0
-343 0
-345 -346 -250 0
-345 346 250 0
345 346 -250 0
345 -346 250 0
-345 0

